c 5-SAT 
p cnf 12 28 
1 2 -3 4 5 0
1 2 -3 4 -5 0
1 2 -3 -4 5 0
1 2 -3 -4 -5 0
2 -3 6 7 8 0
2 -3 6 7 -8 0
2 -3 6 -7 8 0
2 -3 6 -7 -8 0
2 -3 -6 7 8 0
2 -3 -6 7 -8 0
2 -3 -6 -7 8 0
2 -3 -6 -7 -8 0
1 9 10 11 12 0
1 9 10 11 -12 0
1 9 10 -11 12 0
1 9 10 -11 -12 0
1 9 -10 11 12 0
1 9 -10 11 -12 0
1 9 -10 -11 12 0
1 9 -10 -11 -12 0
1 -9 10 11 12 0
1 -9 10 11 -12 0
1 -9 10 -11 12 0
1 -9 10 -11 -12 0
1 -9 -10 11 12 0
1 -9 -10 11 -12 0
1 -9 -10 -11 12 0
1 -9 -10 -11 -12 0
